p cnf 3041
-17 -258
-18 -92
-19 -95
-20 -98
-21 -101
-22 -104
-23 -107
-24 -110
-25 -113
-26 -300
-27 -306
-28 -312
-29 -318
-30 -324
-31 -330
-32 -336
-33 -342
-34 -370
-35 -389
-36 -407
-37 -417
-38 -436
-39 -455
-40 -473
-41 -483
-42 -502
-43 -521
-44 -539
-45 -549
-46 -568
-47 -587
-48 -605
-49 -615
-50 -634
-51 -653
-52 -671
-53 -681
-54 -700
-55 -719
-56 -737
-57 -747
-58 -766
-59 -785
-60 -803
-61 -813
-62 -832
-63 -851
-64 -869
-65 -879
-66 -942
-67 -948
-68 -954
-69 1
-69 -26
-1 26 69
-70 2
-70 -27
-2 27 70
-71 3
-71 -28
-3 28 71
-72 4
-72 -29
-4 29 72
-73 5
-73 -30
-5 30 73
-74 6
-74 -31
-6 31 74
-75 7
-75 -32
-7 32 75
-76 8
-76 -33
-8 33 76
-77 -69
-77 70
69 -70 77
-78 -69
-78 -77
69 77 78
-79 71
-79 78
-71 -78 79
-80 78
-80 -79
-78 79 80
-81 72
-81 80
-72 -80 81
-82 80
-82 -81
-80 81 82
-83 73
-83 82
-73 -82 83
-84 82
-84 -83
-82 83 84
-85 74
-85 84
-74 -84 85
-86 84
-86 -85
-84 85 86
-87 75
-87 86
-75 -86 87
-88 86
-88 -87
-86 87 88
-89 76
-89 88
-76 -88 89
-90 -17
-90 69
17 -69 90
-91 17
-91 18
-17 -18 91
-92 -90
-92 -91
90 91 92
-93 -17
-93 77
17 -77 93
-94 17
-94 19
-17 -19 94
-95 -93
-95 -94
93 94 95
-96 -17
-96 79
17 -79 96
-97 17
-97 20
-17 -20 97
-98 -96
-98 -97
96 97 98
-99 -17
-99 81
17 -81 99
-100 17
-100 21
-17 -21 100
-101 -99
-101 -100
99 100 101
-102 -17
-102 83
17 -83 102
-103 17
-103 22
-17 -22 103
-104 -102
-104 -103
102 103 104
-105 -17
-105 85
17 -85 105
-106 17
-106 23
-17 -23 106
-107 -105
-107 -106
105 106 107
-108 -17
-108 87
17 -87 108
-109 17
-109 24
-17 -24 109
-110 -108
-110 -109
108 109 110
-111 -17
-111 89
17 -89 111
-112 17
-112 25
-17 -25 112
-113 -111
-113 -112
111 112 113
-114 1
-114 -92
-1 92 114
-115 2
-115 -95
-2 95 115
-116 3
-116 -98
-3 98 116
-117 4
-117 -101
-4 101 117
-118 5
-118 -104
-5 104 118
-119 6
-119 -107
-6 107 119
-120 7
-120 -110
-7 110 120
-121 8
-121 -113
-8 113 121
-122 34
-122 -35
-34 35 122
-123 -36
-123 -37
36 37 123
-124 122
-124 123
-122 -123 124
-125 -34
-125 -35
34 35 125
-126 -36
-126 37
36 -37 126
-127 125
-127 126
-125 -126 127
-128 -124
-128 -127
124 127 128
-129 114
-129 -128
-114 128 129
-130 38
-130 -39
-38 39 130
-131 -40
-131 -41
40 41 131
-132 130
-132 131
-130 -131 132
-133 -38
-133 -39
38 39 133
-134 -40
-134 41
40 -41 134
-135 133
-135 134
-133 -134 135
-136 -132
-136 -135
132 135 136
-137 115
-137 -136
-115 136 137
-138 42
-138 -43
-42 43 138
-139 -44
-139 -45
44 45 139
-140 138
-140 139
-138 -139 140
-141 -42
-141 -43
42 43 141
-142 -44
-142 45
44 -45 142
-143 141
-143 142
-141 -142 143
-144 -140
-144 -143
140 143 144
-145 116
-145 -144
-116 144 145
-146 46
-146 -47
-46 47 146
-147 -48
-147 -49
48 49 147
-148 146
-148 147
-146 -147 148
-149 -46
-149 -47
46 47 149
-150 -48
-150 49
48 -49 150
-151 149
-151 150
-149 -150 151
-152 -148
-152 -151
148 151 152
-153 117
-153 -152
-117 152 153
-154 50
-154 -51
-50 51 154
-155 -52
-155 -53
52 53 155
-156 154
-156 155
-154 -155 156
-157 -50
-157 -51
50 51 157
-158 -52
-158 53
52 -53 158
-159 157
-159 158
-157 -158 159
-160 -156
-160 -159
156 159 160
-161 118
-161 -160
-118 160 161
-162 54
-162 -55
-54 55 162
-163 -56
-163 -57
56 57 163
-164 162
-164 163
-162 -163 164
-165 -54
-165 -55
54 55 165
-166 -56
-166 57
56 -57 166
-167 165
-167 166
-165 -166 167
-168 -164
-168 -167
164 167 168
-169 119
-169 -168
-119 168 169
-170 58
-170 -59
-58 59 170
-171 -60
-171 -61
60 61 171
-172 170
-172 171
-170 -171 172
-173 -58
-173 -59
58 59 173
-174 -60
-174 61
60 -61 174
-175 173
-175 174
-173 -174 175
-176 -172
-176 -175
172 175 176
-177 120
-177 -176
-120 176 177
-178 62
-178 -63
-62 63 178
-179 -64
-179 -65
64 65 179
-180 178
-180 179
-178 -179 180
-181 -62
-181 -63
62 63 181
-182 -64
-182 65
64 -65 182
-183 181
-183 182
-181 -182 183
-184 -180
-184 -183
180 183 184
-185 121
-185 -184
-121 184 185
-186 -129
-186 -137
129 137 186
-187 -145
-187 -153
145 153 187
-188 -161
-188 -169
161 169 188
-189 -177
-189 -185
177 185 189
-190 186
-190 187
-186 -187 190
-191 188
-191 189
-188 -189 191
-192 190
-192 191
-190 -191 192
-193 -34
-193 35
34 -35 193
-194 36
-194 -37
-36 37 194
-195 193
-195 194
-193 -194 195
-196 36
-196 37
-36 -37 196
-197 122
-197 196
-122 -196 197
-198 -195
-198 -197
195 197 198
-199 114
-199 -198
-114 198 199
-200 -38
-200 39
38 -39 200
-201 40
-201 -41
-40 41 201
-202 200
-202 201
-200 -201 202
-203 40
-203 41
-40 -41 203
-204 130
-204 203
-130 -203 204
-205 -202
-205 -204
202 204 205
-206 115
-206 -205
-115 205 206
-207 -42
-207 43
42 -43 207
-208 44
-208 -45
-44 45 208
-209 207
-209 208
-207 -208 209
-210 44
-210 45
-44 -45 210
-211 138
-211 210
-138 -210 211
-212 -209
-212 -211
209 211 212
-213 116
-213 -212
-116 212 213
-214 -46
-214 47
46 -47 214
-215 48
-215 -49
-48 49 215
-216 214
-216 215
-214 -215 216
-217 48
-217 49
-48 -49 217
-218 146
-218 217
-146 -217 218
-219 -216
-219 -218
216 218 219
-220 117
-220 -219
-117 219 220
-221 -50
-221 51
50 -51 221
-222 52
-222 -53
-52 53 222
-223 221
-223 222
-221 -222 223
-224 52
-224 53
-52 -53 224
-225 154
-225 224
-154 -224 225
-226 -223
-226 -225
223 225 226
-227 118
-227 -226
-118 226 227
-228 -54
-228 55
54 -55 228
-229 56
-229 -57
-56 57 229
-230 228
-230 229
-228 -229 230
-231 56
-231 57
-56 -57 231
-232 162
-232 231
-162 -231 232
-233 -230
-233 -232
230 232 233
-234 119
-234 -233
-119 233 234
-235 -58
-235 59
58 -59 235
-236 60
-236 -61
-60 61 236
-237 235
-237 236
-235 -236 237
-238 60
-238 61
-60 -61 238
-239 170
-239 238
-170 -238 239
-240 -237
-240 -239
237 239 240
-241 120
-241 -240
-120 240 241
-242 -62
-242 63
62 -63 242
-243 64
-243 -65
-64 65 243
-244 242
-244 243
-242 -243 244
-245 64
-245 65
-64 -65 245
-246 178
-246 245
-178 -245 246
-247 -244
-247 -246
244 246 247
-248 121
-248 -247
-121 247 248
-249 -199
-249 -206
199 206 249
-250 -213
-250 -220
213 220 250
-251 -227
-251 -234
227 234 251
-252 -241
-252 -248
241 248 252
-253 249
-253 250
-249 -250 253
-254 251
-254 252
-251 -252 254
-255 253
-255 254
-253 -254 255
-256 17
-256 255
-17 -255 256
-257 192
-257 256
-192 -256 257
-258 192
-258 -257
-192 257 258
-259 -26
-259 27
26 -27 259
-260 -26
-260 -259
26 259 260
-261 28
-261 260
-28 -260 261
-262 260
-262 -261
-260 261 262
-263 29
-263 262
-29 -262 263
-264 262
-264 -263
-262 263 264
-265 30
-265 264
-30 -264 265
-266 264
-266 -265
-264 265 266
-267 31
-267 266
-31 -266 267
-268 266
-268 -267
-266 267 268
-269 32
-269 268
-32 -268 269
-270 268
-270 -269
-268 269 270
-271 33
-271 270
-33 -270 271
-272 125
-272 196
-125 -196 272
-273 114
-273 272
-114 -272 273
-274 133
-274 203
-133 -203 274
-275 115
-275 274
-115 -274 275
-276 141
-276 210
-141 -210 276
-277 116
-277 276
-116 -276 277
-278 149
-278 217
-149 -217 278
-279 117
-279 278
-117 -278 279
-280 157
-280 224
-157 -224 280
-281 118
-281 280
-118 -280 281
-282 165
-282 231
-165 -231 282
-283 119
-283 282
-119 -282 283
-284 173
-284 238
-173 -238 284
-285 120
-285 284
-120 -284 285
-286 181
-286 245
-181 -245 286
-287 121
-287 286
-121 -286 287
-288 -273
-288 -275
273 275 288
-289 -277
-289 -279
277 279 289
-290 -281
-290 -283
281 283 290
-291 -285
-291 -287
285 287 291
-292 288
-292 289
-288 -289 292
-293 290
-293 291
-290 -291 293
-294 292
-294 293
-292 -293 294
-295 122
-295 194
-122 -194 295
-296 114
-296 295
-114 -295 296
-297 26
-297 -294
-26 294 297
-298 26
-298 -297
-26 297 298
-299 -296
-299 298
296 -298 299
-300 -296
-300 -299
296 299 300
-301 130
-301 201
-130 -201 301
-302 115
-302 301
-115 -301 302
-303 259
-303 -294
-259 294 303
-304 27
-304 -303
-27 303 304
-305 -302
-305 304
302 -304 305
-306 -302
-306 -305
302 305 306
-307 138
-307 208
-138 -208 307
-308 116
-308 307
-116 -307 308
-309 261
-309 -294
-261 294 309
-310 28
-310 -309
-28 309 310
-311 -308
-311 310
308 -310 311
-312 -308
-312 -311
308 311 312
-313 146
-313 215
-146 -215 313
-314 117
-314 313
-117 -313 314
-315 263
-315 -294
-263 294 315
-316 29
-316 -315
-29 315 316
-317 -314
-317 316
314 -316 317
-318 -314
-318 -317
314 317 318
-319 154
-319 222
-154 -222 319
-320 118
-320 319
-118 -319 320
-321 265
-321 -294
-265 294 321
-322 30
-322 -321
-30 321 322
-323 -320
-323 322
320 -322 323
-324 -320
-324 -323
320 323 324
-325 162
-325 229
-162 -229 325
-326 119
-326 325
-119 -325 326
-327 267
-327 -294
-267 294 327
-328 31
-328 -327
-31 327 328
-329 -326
-329 328
326 -328 329
-330 -326
-330 -329
326 329 330
-331 170
-331 236
-170 -236 331
-332 120
-332 331
-120 -331 332
-333 269
-333 -294
-269 294 333
-334 32
-334 -333
-32 333 334
-335 -332
-335 334
332 -334 335
-336 -332
-336 -335
332 335 336
-337 178
-337 243
-178 -243 337
-338 121
-338 337
-121 -337 338
-339 271
-339 -294
-271 294 339
-340 33
-340 -339
-33 339 340
-341 -338
-341 340
338 -340 341
-342 -338
-342 -341
338 341 342
-343 -26
-343 -27
26 27 343
-344 -28
-344 -29
28 29 344
-345 -30
-345 -31
30 31 345
-346 -32
-346 -33
32 33 346
-347 343
-347 344
-343 -344 347
-348 345
-348 346
-345 -346 348
-349 347
-349 348
-347 -348 349
-350 66
-350 67
-66 -67 350
-351 68
-351 350
-68 -350 351
-352 -35
-352 -125
35 125 352
-353 36
-353 125
-36 -125 353
-354 -36
-354 -352
36 352 354
-355 -353
-355 -354
353 354 355
-356 -9
-356 34
9 -34 356
-357 34
-357 -356
-34 356 357
-358 35
-358 -357
-35 357 358
-359 9
-359 -34
-9 34 359
-360 -35
-360 359
35 -359 360
-361 -193
-361 -360
193 360 361
-362 36
-362 358
-36 -358 362
-363 -36
-363 -361
36 361 363
-364 -362
-364 -363
362 363 364
-365 37
-365 -355
-37 355 365
-366 -37
-366 -364
37 364 366
-367 -365
-367 -366
365 366 367
-368 114
-368 -367
-114 367 368
-369 34
-369 -114
-34 114 369
-370 -368
-370 -369
368 369 370
-371 34
-371 349
-34 -349 371
-372 -35
-372 371
35 -371 372
-373 -193
-373 -372
193 372 373
-374 36
-374 122
-36 -122 374
-375 -36
-375 -373
36 373 375
-376 -374
-376 -375
374 375 376
-377 35
-377 -358
-35 358 377
-378 -34
-378 -351
34 351 378
-379 35
-379 378
-35 -378 379
-380 -122
-380 -379
122 379 380
-381 36
-381 -377
-36 377 381
-382 -36
-382 -380
36 380 382
-383 -381
-383 -382
381 382 383
-384 37
-384 -376
-37 376 384
-385 -37
-385 -383
37 383 385
-386 -384
-386 -385
384 385 386
-387 114
-387 -386
-114 386 387
-388 35
-388 -114
-35 114 388
-389 -387
-389 -388
387 388 389
-390 34
-390 -349
-34 349 390
-391 34
-391 35
-34 -35 391
-392 -35
-392 390
35 -390 392
-393 -391
-393 -392
391 392 393
-394 -35
-394 36
35 -36 394
-395 -36
-395 -393
36 393 395
-396 -394
-396 -395
394 395 396
-397 -34
-397 351
34 -351 397
-398 -34
-398 -397
34 397 398
-399 35
-399 -398
-35 398 399
-400 -36
-400 399
36 -399 400
-401 -381
-401 -400
381 400 401
-402 37
-402 -396
-37 396 402
-403 -37
-403 -401
37 401 403
-404 -402
-404 -403
402 403 404
-405 114
-405 -404
-114 404 405
-406 36
-406 -114
-36 114 406
-407 -405
-407 -406
405 406 407
-408 36
-408 -394
-36 394 408
-409 9
-409 34
-9 -34 409
-410 35
-410 409
-35 -409 410
-411 36
-411 410
-36 -410 411
-412 37
-412 -408
-37 408 412
-413 -37
-413 411
37 -411 413
-414 -412
-414 -413
412 413 414
-415 114
-415 -414
-114 414 415
-416 37
-416 -114
-37 114 416
-417 -415
-417 -416
415 416 417
-418 -39
-418 -133
39 133 418
-419 40
-419 133
-40 -133 419
-420 -40
-420 -418
40 418 420
-421 -419
-421 -420
419 420 421
-422 -10
-422 38
10 -38 422
-423 38
-423 -422
-38 422 423
-424 39
-424 -423
-39 423 424
-425 10
-425 -38
-10 38 425
-426 -39
-426 425
39 -425 426
-427 -200
-427 -426
200 426 427
-428 40
-428 424
-40 -424 428
-429 -40
-429 -427
40 427 429
-430 -428
-430 -429
428 429 430
-431 41
-431 -421
-41 421 431
-432 -41
-432 -430
41 430 432
-433 -431
-433 -432
431 432 433
-434 115
-434 -433
-115 433 434
-435 38
-435 -115
-38 115 435
-436 -434
-436 -435
434 435 436
-437 38
-437 349
-38 -349 437
-438 -39
-438 437
39 -437 438
-439 -200
-439 -438
200 438 439
-440 40
-440 130
-40 -130 440
-441 -40
-441 -439
40 439 441
-442 -440
-442 -441
440 441 442
-443 39
-443 -424
-39 424 443
-444 -38
-444 -351
38 351 444
-445 39
-445 444
-39 -444 445
-446 -130
-446 -445
130 445 446
-447 40
-447 -443
-40 443 447
-448 -40
-448 -446
40 446 448
-449 -447
-449 -448
447 448 449
-450 41
-450 -442
-41 442 450
-451 -41
-451 -449
41 449 451
-452 -450
-452 -451
450 451 452
-453 115
-453 -452
-115 452 453
-454 39
-454 -115
-39 115 454
-455 -453
-455 -454
453 454 455
-456 38
-456 -349
-38 349 456
-457 38
-457 39
-38 -39 457
-458 -39
-458 456
39 -456 458
-459 -457
-459 -458
457 458 459
-460 -39
-460 40
39 -40 460
-461 -40
-461 -459
40 459 461
-462 -460
-462 -461
460 461 462
-463 -38
-463 351
38 -351 463
-464 -38
-464 -463
38 463 464
-465 39
-465 -464
-39 464 465
-466 -40
-466 465
40 -465 466
-467 -447
-467 -466
447 466 467
-468 41
-468 -462
-41 462 468
-469 -41
-469 -467
41 467 469
-470 -468
-470 -469
468 469 470
-471 115
-471 -470
-115 470 471
-472 40
-472 -115
-40 115 472
-473 -471
-473 -472
471 472 473
-474 40
-474 -460
-40 460 474
-475 10
-475 38
-10 -38 475
-476 39
-476 475
-39 -475 476
-477 40
-477 476
-40 -476 477
-478 41
-478 -474
-41 474 478
-479 -41
-479 477
41 -477 479
-480 -478
-480 -479
478 479 480
-481 115
-481 -480
-115 480 481
-482 41
-482 -115
-41 115 482
-483 -481
-483 -482
481 482 483
-484 -43
-484 -141
43 141 484
-485 44
-485 141
-44 -141 485
-486 -44
-486 -484
44 484 486
-487 -485
-487 -486
485 486 487
-488 -11
-488 42
11 -42 488
-489 42
-489 -488
-42 488 489
-490 43
-490 -489
-43 489 490
-491 11
-491 -42
-11 42 491
-492 -43
-492 491
43 -491 492
-493 -207
-493 -492
207 492 493
-494 44
-494 490
-44 -490 494
-495 -44
-495 -493
44 493 495
-496 -494
-496 -495
494 495 496
-497 45
-497 -487
-45 487 497
-498 -45
-498 -496
45 496 498
-499 -497
-499 -498
497 498 499
-500 116
-500 -499
-116 499 500
-501 42
-501 -116
-42 116 501
-502 -500
-502 -501
500 501 502
-503 42
-503 349
-42 -349 503
-504 -43
-504 503
43 -503 504
-505 -207
-505 -504
207 504 505
-506 44
-506 138
-44 -138 506
-507 -44
-507 -505
44 505 507
-508 -506
-508 -507
506 507 508
-509 43
-509 -490
-43 490 509
-510 -42
-510 -351
42 351 510
-511 43
-511 510
-43 -510 511
-512 -138
-512 -511
138 511 512
-513 44
-513 -509
-44 509 513
-514 -44
-514 -512
44 512 514
-515 -513
-515 -514
513 514 515
-516 45
-516 -508
-45 508 516
-517 -45
-517 -515
45 515 517
-518 -516
-518 -517
516 517 518
-519 116
-519 -518
-116 518 519
-520 43
-520 -116
-43 116 520
-521 -519
-521 -520
519 520 521
-522 42
-522 -349
-42 349 522
-523 42
-523 43
-42 -43 523
-524 -43
-524 522
43 -522 524
-525 -523
-525 -524
523 524 525
-526 -43
-526 44
43 -44 526
-527 -44
-527 -525
44 525 527
-528 -526
-528 -527
526 527 528
-529 -42
-529 351
42 -351 529
-530 -42
-530 -529
42 529 530
-531 43
-531 -530
-43 530 531
-532 -44
-532 531
44 -531 532
-533 -513
-533 -532
513 532 533
-534 45
-534 -528
-45 528 534
-535 -45
-535 -533
45 533 535
-536 -534
-536 -535
534 535 536
-537 116
-537 -536
-116 536 537
-538 44
-538 -116
-44 116 538
-539 -537
-539 -538
537 538 539
-540 44
-540 -526
-44 526 540
-541 11
-541 42
-11 -42 541
-542 43
-542 541
-43 -541 542
-543 44
-543 542
-44 -542 543
-544 45
-544 -540
-45 540 544
-545 -45
-545 543
45 -543 545
-546 -544
-546 -545
544 545 546
-547 116
-547 -546
-116 546 547
-548 45
-548 -116
-45 116 548
-549 -547
-549 -548
547 548 549
-550 -47
-550 -149
47 149 550
-551 48
-551 149
-48 -149 551
-552 -48
-552 -550
48 550 552
-553 -551
-553 -552
551 552 553
-554 -12
-554 46
12 -46 554
-555 46
-555 -554
-46 554 555
-556 47
-556 -555
-47 555 556
-557 12
-557 -46
-12 46 557
-558 -47
-558 557
47 -557 558
-559 -214
-559 -558
214 558 559
-560 48
-560 556
-48 -556 560
-561 -48
-561 -559
48 559 561
-562 -560
-562 -561
560 561 562
-563 49
-563 -553
-49 553 563
-564 -49
-564 -562
49 562 564
-565 -563
-565 -564
563 564 565
-566 117
-566 -565
-117 565 566
-567 46
-567 -117
-46 117 567
-568 -566
-568 -567
566 567 568
-569 46
-569 349
-46 -349 569
-570 -47
-570 569
47 -569 570
-571 -214
-571 -570
214 570 571
-572 48
-572 146
-48 -146 572
-573 -48
-573 -571
48 571 573
-574 -572
-574 -573
572 573 574
-575 47
-575 -556
-47 556 575
-576 -46
-576 -351
46 351 576
-577 47
-577 576
-47 -576 577
-578 -146
-578 -577
146 577 578
-579 48
-579 -575
-48 575 579
-580 -48
-580 -578
48 578 580
-581 -579
-581 -580
579 580 581
-582 49
-582 -574
-49 574 582
-583 -49
-583 -581
49 581 583
-584 -582
-584 -583
582 583 584
-585 117
-585 -584
-117 584 585
-586 47
-586 -117
-47 117 586
-587 -585
-587 -586
585 586 587
-588 46
-588 -349
-46 349 588
-589 46
-589 47
-46 -47 589
-590 -47
-590 588
47 -588 590
-591 -589
-591 -590
589 590 591
-592 -47
-592 48
47 -48 592
-593 -48
-593 -591
48 591 593
-594 -592
-594 -593
592 593 594
-595 -46
-595 351
46 -351 595
-596 -46
-596 -595
46 595 596
-597 47
-597 -596
-47 596 597
-598 -48
-598 597
48 -597 598
-599 -579
-599 -598
579 598 599
-600 49
-600 -594
-49 594 600
-601 -49
-601 -599
49 599 601
-602 -600
-602 -601
600 601 602
-603 117
-603 -602
-117 602 603
-604 48
-604 -117
-48 117 604
-605 -603
-605 -604
603 604 605
-606 48
-606 -592
-48 592 606
-607 12
-607 46
-12 -46 607
-608 47
-608 607
-47 -607 608
-609 48
-609 608
-48 -608 609
-610 49
-610 -606
-49 606 610
-611 -49
-611 609
49 -609 611
-612 -610
-612 -611
610 611 612
-613 117
-613 -612
-117 612 613
-614 49
-614 -117
-49 117 614
-615 -613
-615 -614
613 614 615
-616 -51
-616 -157
51 157 616
-617 52
-617 157
-52 -157 617
-618 -52
-618 -616
52 616 618
-619 -617
-619 -618
617 618 619
-620 -13
-620 50
13 -50 620
-621 50
-621 -620
-50 620 621
-622 51
-622 -621
-51 621 622
-623 13
-623 -50
-13 50 623
-624 -51
-624 623
51 -623 624
-625 -221
-625 -624
221 624 625
-626 52
-626 622
-52 -622 626
-627 -52
-627 -625
52 625 627
-628 -626
-628 -627
626 627 628
-629 53
-629 -619
-53 619 629
-630 -53
-630 -628
53 628 630
-631 -629
-631 -630
629 630 631
-632 118
-632 -631
-118 631 632
-633 50
-633 -118
-50 118 633
-634 -632
-634 -633
632 633 634
-635 50
-635 349
-50 -349 635
-636 -51
-636 635
51 -635 636
-637 -221
-637 -636
221 636 637
-638 52
-638 154
-52 -154 638
-639 -52
-639 -637
52 637 639
-640 -638
-640 -639
638 639 640
-641 51
-641 -622
-51 622 641
-642 -50
-642 -351
50 351 642
-643 51
-643 642
-51 -642 643
-644 -154
-644 -643
154 643 644
-645 52
-645 -641
-52 641 645
-646 -52
-646 -644
52 644 646
-647 -645
-647 -646
645 646 647
-648 53
-648 -640
-53 640 648
-649 -53
-649 -647
53 647 649
-650 -648
-650 -649
648 649 650
-651 118
-651 -650
-118 650 651
-652 51
-652 -118
-51 118 652
-653 -651
-653 -652
651 652 653
-654 50
-654 -349
-50 349 654
-655 50
-655 51
-50 -51 655
-656 -51
-656 654
51 -654 656
-657 -655
-657 -656
655 656 657
-658 -51
-658 52
51 -52 658
-659 -52
-659 -657
52 657 659
-660 -658
-660 -659
658 659 660
-661 -50
-661 351
50 -351 661
-662 -50
-662 -661
50 661 662
-663 51
-663 -662
-51 662 663
-664 -52
-664 663
52 -663 664
-665 -645
-665 -664
645 664 665
-666 53
-666 -660
-53 660 666
-667 -53
-667 -665
53 665 667
-668 -666
-668 -667
666 667 668
-669 118
-669 -668
-118 668 669
-670 52
-670 -118
-52 118 670
-671 -669
-671 -670
669 670 671
-672 52
-672 -658
-52 658 672
-673 13
-673 50
-13 -50 673
-674 51
-674 673
-51 -673 674
-675 52
-675 674
-52 -674 675
-676 53
-676 -672
-53 672 676
-677 -53
-677 675
53 -675 677
-678 -676
-678 -677
676 677 678
-679 118
-679 -678
-118 678 679
-680 53
-680 -118
-53 118 680
-681 -679
-681 -680
679 680 681
-682 -55
-682 -165
55 165 682
-683 56
-683 165
-56 -165 683
-684 -56
-684 -682
56 682 684
-685 -683
-685 -684
683 684 685
-686 -14
-686 54
14 -54 686
-687 54
-687 -686
-54 686 687
-688 55
-688 -687
-55 687 688
-689 14
-689 -54
-14 54 689
-690 -55
-690 689
55 -689 690
-691 -228
-691 -690
228 690 691
-692 56
-692 688
-56 -688 692
-693 -56
-693 -691
56 691 693
-694 -692
-694 -693
692 693 694
-695 57
-695 -685
-57 685 695
-696 -57
-696 -694
57 694 696
-697 -695
-697 -696
695 696 697
-698 119
-698 -697
-119 697 698
-699 54
-699 -119
-54 119 699
-700 -698
-700 -699
698 699 700
-701 54
-701 349
-54 -349 701
-702 -55
-702 701
55 -701 702
-703 -228
-703 -702
228 702 703
-704 56
-704 162
-56 -162 704
-705 -56
-705 -703
56 703 705
-706 -704
-706 -705
704 705 706
-707 55
-707 -688
-55 688 707
-708 -54
-708 -351
54 351 708
-709 55
-709 708
-55 -708 709
-710 -162
-710 -709
162 709 710
-711 56
-711 -707
-56 707 711
-712 -56
-712 -710
56 710 712
-713 -711
-713 -712
711 712 713
-714 57
-714 -706
-57 706 714
-715 -57
-715 -713
57 713 715
-716 -714
-716 -715
714 715 716
-717 119
-717 -716
-119 716 717
-718 55
-718 -119
-55 119 718
-719 -717
-719 -718
717 718 719
-720 54
-720 -349
-54 349 720
-721 54
-721 55
-54 -55 721
-722 -55
-722 720
55 -720 722
-723 -721
-723 -722
721 722 723
-724 -55
-724 56
55 -56 724
-725 -56
-725 -723
56 723 725
-726 -724
-726 -725
724 725 726
-727 -54
-727 351
54 -351 727
-728 -54
-728 -727
54 727 728
-729 55
-729 -728
-55 728 729
-730 -56
-730 729
56 -729 730
-731 -711
-731 -730
711 730 731
-732 57
-732 -726
-57 726 732
-733 -57
-733 -731
57 731 733
-734 -732
-734 -733
732 733 734
-735 119
-735 -734
-119 734 735
-736 56
-736 -119
-56 119 736
-737 -735
-737 -736
735 736 737
-738 56
-738 -724
-56 724 738
-739 14
-739 54
-14 -54 739
-740 55
-740 739
-55 -739 740
-741 56
-741 740
-56 -740 741
-742 57
-742 -738
-57 738 742
-743 -57
-743 741
57 -741 743
-744 -742
-744 -743
742 743 744
-745 119
-745 -744
-119 744 745
-746 57
-746 -119
-57 119 746
-747 -745
-747 -746
745 746 747
-748 -59
-748 -173
59 173 748
-749 60
-749 173
-60 -173 749
-750 -60
-750 -748
60 748 750
-751 -749
-751 -750
749 750 751
-752 -15
-752 58
15 -58 752
-753 58
-753 -752
-58 752 753
-754 59
-754 -753
-59 753 754
-755 15
-755 -58
-15 58 755
-756 -59
-756 755
59 -755 756
-757 -235
-757 -756
235 756 757
-758 60
-758 754
-60 -754 758
-759 -60
-759 -757
60 757 759
-760 -758
-760 -759
758 759 760
-761 61
-761 -751
-61 751 761
-762 -61
-762 -760
61 760 762
-763 -761
-763 -762
761 762 763
-764 120
-764 -763
-120 763 764
-765 58
-765 -120
-58 120 765
-766 -764
-766 -765
764 765 766
-767 58
-767 349
-58 -349 767
-768 -59
-768 767
59 -767 768
-769 -235
-769 -768
235 768 769
-770 60
-770 170
-60 -170 770
-771 -60
-771 -769
60 769 771
-772 -770
-772 -771
770 771 772
-773 59
-773 -754
-59 754 773
-774 -58
-774 -351
58 351 774
-775 59
-775 774
-59 -774 775
-776 -170
-776 -775
170 775 776
-777 60
-777 -773
-60 773 777
-778 -60
-778 -776
60 776 778
-779 -777
-779 -778
777 778 779
-780 61
-780 -772
-61 772 780
-781 -61
-781 -779
61 779 781
-782 -780
-782 -781
780 781 782
-783 120
-783 -782
-120 782 783
-784 59
-784 -120
-59 120 784
-785 -783
-785 -784
783 784 785
-786 58
-786 -349
-58 349 786
-787 58
-787 59
-58 -59 787
-788 -59
-788 786
59 -786 788
-789 -787
-789 -788
787 788 789
-790 -59
-790 60
59 -60 790
-791 -60
-791 -789
60 789 791
-792 -790
-792 -791
790 791 792
-793 -58
-793 351
58 -351 793
-794 -58
-794 -793
58 793 794
-795 59
-795 -794
-59 794 795
-796 -60
-796 795
60 -795 796
-797 -777
-797 -796
777 796 797
-798 61
-798 -792
-61 792 798
-799 -61
-799 -797
61 797 799
-800 -798
-800 -799
798 799 800
-801 120
-801 -800
-120 800 801
-802 60
-802 -120
-60 120 802
-803 -801
-803 -802
801 802 803
-804 60
-804 -790
-60 790 804
-805 15
-805 58
-15 -58 805
-806 59
-806 805
-59 -805 806
-807 60
-807 806
-60 -806 807
-808 61
-808 -804
-61 804 808
-809 -61
-809 807
61 -807 809
-810 -808
-810 -809
808 809 810
-811 120
-811 -810
-120 810 811
-812 61
-812 -120
-61 120 812
-813 -811
-813 -812
811 812 813
-814 -63
-814 -181
63 181 814
-815 64
-815 181
-64 -181 815
-816 -64
-816 -814
64 814 816
-817 -815
-817 -816
815 816 817
-818 -16
-818 62
16 -62 818
-819 62
-819 -818
-62 818 819
-820 63
-820 -819
-63 819 820
-821 16
-821 -62
-16 62 821
-822 -63
-822 821
63 -821 822
-823 -242
-823 -822
242 822 823
-824 64
-824 820
-64 -820 824
-825 -64
-825 -823
64 823 825
-826 -824
-826 -825
824 825 826
-827 65
-827 -817
-65 817 827
-828 -65
-828 -826
65 826 828
-829 -827
-829 -828
827 828 829
-830 121
-830 -829
-121 829 830
-831 62
-831 -121
-62 121 831
-832 -830
-832 -831
830 831 832
-833 62
-833 349
-62 -349 833
-834 -63
-834 833
63 -833 834
-835 -242
-835 -834
242 834 835
-836 64
-836 178
-64 -178 836
-837 -64
-837 -835
64 835 837
-838 -836
-838 -837
836 837 838
-839 63
-839 -820
-63 820 839
-840 -62
-840 -351
62 351 840
-841 63
-841 840
-63 -840 841
-842 -178
-842 -841
178 841 842
-843 64
-843 -839
-64 839 843
-844 -64
-844 -842
64 842 844
-845 -843
-845 -844
843 844 845
-846 65
-846 -838
-65 838 846
-847 -65
-847 -845
65 845 847
-848 -846
-848 -847
846 847 848
-849 121
-849 -848
-121 848 849
-850 63
-850 -121
-63 121 850
-851 -849
-851 -850
849 850 851
-852 62
-852 -349
-62 349 852
-853 62
-853 63
-62 -63 853
-854 -63
-854 852
63 -852 854
-855 -853
-855 -854
853 854 855
-856 -63
-856 64
63 -64 856
-857 -64
-857 -855
64 855 857
-858 -856
-858 -857
856 857 858
-859 -62
-859 351
62 -351 859
-860 -62
-860 -859
62 859 860
-861 63
-861 -860
-63 860 861
-862 -64
-862 861
64 -861 862
-863 -843
-863 -862
843 862 863
-864 65
-864 -858
-65 858 864
-865 -65
-865 -863
65 863 865
-866 -864
-866 -865
864 865 866
-867 121
-867 -866
-121 866 867
-868 64
-868 -121
-64 121 868
-869 -867
-869 -868
867 868 869
-870 64
-870 -856
-64 856 870
-871 16
-871 62
-16 -62 871
-872 63
-872 871
-63 -871 872
-873 64
-873 872
-64 -872 873
-874 65
-874 -870
-65 870 874
-875 -65
-875 873
65 -873 875
-876 -874
-876 -875
874 875 876
-877 121
-877 -876
-121 876 877
-878 65
-878 -121
-65 121 878
-879 -877
-879 -878
877 878 879
-880 123
-880 391
-123 -391 880
-881 114
-881 880
-114 -880 881
-882 131
-882 457
-131 -457 882
-883 115
-883 882
-115 -882 883
-884 139
-884 523
-139 -523 884
-885 116
-885 884
-116 -884 885
-886 147
-886 589
-147 -589 886
-887 117
-887 886
-117 -886 887
-888 155
-888 655
-155 -655 888
-889 118
-889 888
-118 -888 889
-890 163
-890 721
-163 -721 890
-891 119
-891 890
-119 -890 891
-892 171
-892 787
-171 -787 892
-893 120
-893 892
-120 -892 893
-894 179
-894 853
-179 -853 894
-895 121
-895 894
-121 -894 895
-896 -881
-896 -883
881 883 896
-897 -885
-897 -887
885 887 897
-898 -889
-898 -891
889 891 898
-899 -893
-899 -895
893 895 899
-900 896
-900 897
-896 -897 900
-901 898
-901 899
-898 -899 901
-902 900
-902 901
-900 -901 902
-903 126
-903 193
-126 -193 903
-904 114
-904 903
-114 -903 904
-905 134
-905 200
-134 -200 905
-906 115
-906 905
-115 -905 906
-907 142
-907 207
-142 -207 907
-908 116
-908 907
-116 -907 908
-909 150
-909 214
-150 -214 909
-910 117
-910 909
-117 -909 910
-911 158
-911 221
-158 -221 911
-912 118
-912 911
-118 -911 912
-913 166
-913 228
-166 -228 913
-914 119
-914 913
-119 -913 914
-915 174
-915 235
-174 -235 915
-916 120
-916 915
-120 -915 916
-917 182
-917 242
-182 -242 917
-918 121
-918 917
-121 -917 918
-919 -904
-919 -906
904 906 919
-920 -908
-920 -910
908 910 920
-921 -912
-921 -914
912 914 921
-922 -916
-922 -918
916 918 922
-923 919
-923 920
-919 -920 923
-924 921
-924 922
-921 -922 924
-925 923
-925 924
-923 -924 925
-926 -66
-926 67
66 -67 926
-927 66
-927 -67
-66 67 927
-928 -926
-928 -927
926 927 928
-929 68
-929 -350
-68 350 929
-930 -68
-930 350
68 -350 930
-931 -929
-931 -930
929 930 931
-932 -66
-932 -67
66 67 932
-933 -350
-933 -932
350 932 933
-934 68
-934 -932
-68 932 934
-935 -68
-935 932
68 -932 935
-936 -934
-936 -935
934 935 936
-937 -66
-937 -925
66 925 937
-938 66
-938 925
-66 -925 938
-939 -937
-939 -938
937 938 939
-940 -66
-940 -902
66 902 940
-941 902
-941 -939
-902 939 941
-942 -940
-942 -941
940 941 942
-943 -925
-943 -933
925 933 943
-944 67
-944 925
-67 -925 944
-945 -943
-945 -944
943 944 945
-946 -902
-946 -928
902 928 946
-947 902
-947 -945
-902 945 947
-948 -946
-948 -947
946 947 948
-949 -925
-949 -936
925 936 949
-950 68
-950 925
-68 -925 950
-951 -949
-951 -950
949 950 951
-952 -902
-952 -931
902 931 952
-953 902
-953 -951
-902 951 953
-954 -952
-954 -953
952 953 954
-955 194
-955 391
-194 -391 955
-956 -26
-956 955
26 -955 956
-957 201
-957 457
-201 -457 957
-958 -27
-958 957
27 -957 958
-959 208
-959 523
-208 -523 959
-960 -28
-960 959
28 -959 960
-961 215
-961 589
-215 -589 961
-962 -29
-962 961
29 -961 962
-963 222
-963 655
-222 -655 963
-964 -30
-964 963
30 -963 964
-965 229
-965 721
-229 -721 965
-966 -31
-966 965
31 -965 966
-967 236
-967 787
-236 -787 967
-968 -32
-968 967
32 -967 968
-969 243
-969 853
-243 -853 969
-970 -33
-970 969
33 -969 970
-971 956
-971 -958
-956 958 971
-972 -956
-972 958
956 -958 972
-973 -971
-973 -972
971 972 973
-974 956
-974 958
-956 -958 974
-975 -960
-975 -973
960 973 975
-976 960
-976 973
-960 -973 976
-977 -975
-977 -976
975 976 977
-978 960
-978 -973
-960 973 978
-979 974
-979 -978
-974 978 979
-980 -974
-980 978
974 -978 980
-981 -979
-981 -980
979 980 981
-982 974
-982 978
-974 -978 982
-983 -962
-983 -977
962 977 983
-984 962
-984 977
-962 -977 984
-985 -983
-985 -984
983 984 985
-986 962
-986 -977
-962 977 986
-987 -982
-987 -985
982 985 987
-988 982
-988 985
-982 -985 988
-989 -987
-989 -988
987 988 989
-990 982
-990 -985
-982 985 990
-991 -986
-991 -990
986 990 991
-992 -981
-992 991
981 -991 992
-993 981
-993 -991
-981 991 993
-994 -992
-994 -993
992 993 994
-995 -981
-995 -991
981 991 995
-996 -964
-996 -989
964 989 996
-997 964
-997 989
-964 -989 997
-998 -996
-998 -997
996 997 998
-999 964
-999 -989
-964 989 999
-1000 -994
-1000 -999
994 999 1000
-1001 994
-1001 999
-994 -999 1001
-1002 -1000
-1002 -1001
1000 1001 1002
-1003 -994
-1003 999
994 -999 1003
-1004 995
-1004 -1003
-995 1003 1004
-1005 -995
-1005 1003
995 -1003 1005
-1006 -1004
-1006 -1005
1004 1005 1006
-1007 995
-1007 1003
-995 -1003 1007
-1008 -966
-1008 -998
966 998 1008
-1009 966
-1009 998
-966 -998 1009
-1010 -1008
-1010 -1009
1008 1009 1010
-1011 966
-1011 -998
-966 998 1011
-1012 -1007
-1012 -1010
1007 1010 1012
-1013 1007
-1013 1010
-1007 -1010 1013
-1014 -1012
-1014 -1013
1012 1013 1014
-1015 1007
-1015 -1010
-1007 1010 1015
-1016 -1011
-1016 -1015
1011 1015 1016
-1017 -1002
-1017 1016
1002 -1016 1017
-1018 1002
-1018 -1016
-1002 1016 1018
-1019 -1017
-1019 -1018
1017 1018 1019
-1020 -1002
-1020 -1016
1002 1016 1020
-1021 -1006
-1021 -1020
1006 1020 1021
-1022 1006
-1022 1020
-1006 -1020 1022
-1023 -1021
-1023 -1022
1021 1022 1023
-1024 -1006
-1024 1020
1006 -1020 1024
-1025 -968
-1025 -1014
968 1014 1025
-1026 968
-1026 1014
-968 -1014 1026
-1027 -1025
-1027 -1026
1025 1026 1027
-1028 968
-1028 -1014
-968 1014 1028
-1029 -1024
-1029 -1027
1024 1027 1029
-1030 1024
-1030 1027
-1024 -1027 1030
-1031 -1029
-1031 -1030
1029 1030 1031
-1032 1024
-1032 -1027
-1024 1027 1032
-1033 -1028
-1033 -1032
1028 1032 1033
-1034 -1019
-1034 1033
1019 -1033 1034
-1035 1019
-1035 -1033
-1019 1033 1035
-1036 -1034
-1036 -1035
1034 1035 1036
-1037 -1019
-1037 -1033
1019 1033 1037
-1038 -1023
-1038 -1037
1023 1037 1038
-1039 1023
-1039 1037
-1023 -1037 1039
-1040 -1038
-1040 -1039
1038 1039 1040
-1041 -1023
-1041 1037
1023 -1037 1041
-1042 -970
-1042 -1031
970 1031 1042
-1043 970
-1043 1031
-970 -1031 1043
-1044 -1042
-1044 -1043
1042 1043 1044
-1045 970
-1045 -1031
-970 1031 1045
-1046 -1041
-1046 -1044
1041 1044 1046
-1047 1041
-1047 1044
-1041 -1044 1047
-1048 -1046
-1048 -1047
1046 1047 1048
-1049 1041
-1049 -1044
-1041 1044 1049
-1050 -1045
-1050 -1049
1045 1049 1050
-1051 -1036
-1051 1050
1036 -1050 1051
-1052 1036
-1052 -1050
-1036 1050 1052
-1053 -1051
-1053 -1052
1051 1052 1053
-1054 -1036
-1054 -1050
1036 1050 1054
-1055 -1040
-1055 -1054
1040 1054 1055
-1056 1040
-1056 1054
-1040 -1054 1056
-1057 -1055
-1057 -1056
1055 1056 1057
-1058 -1040
-1058 1054
1040 -1054 1058
-1059 -349
-1059 -351
349 351 1059
-1060 351
-1060 -902
-351 902 1060
-1061 -925
-1061 935
925 -935 1061
-1062 -1058
-1062 -1060
1058 1060 1062
-1063 -1059
-1063 -1061
1059 1061 1063
-1064 1062
-1064 1063
-1062 -1063 1064
-1064
